10  5
 4  3  0  4  2 14  3  7  1  3   0 149  10
 0  4  4  4  2 15  3  6  1 10   0 149  10
 0  3  4  8  2 10  3 11  1  9   0 149   5
 4 11  1  4  2 12  0  8  3  3   0 149  10
 4  6  0  6  2 14  1  5  3  7   0 149   5
 1  7  3  9  2 10  0  5  4  5   0 149   5
 3  6  0  9  2 15  4  4  1  8   0 149  10
 4  6  0 10  2 15  3  4  1  3   0 149  10
 0  9  3  9  2  8  1 10  4  6   0 149  10
 3  4  4 10  2 16  1  7  0 11   0 149   5
